p cnf 37 110
-3 -11 0
-3 -32 0
-3 -31 0
-3 -30 0
-3 -27 0
-3 -14 0
-3 -33 0
-3 -9 0
-3 -10 0
-3 -22 0
-3 -34 0
-3 -20 0
-3 -7 0
-3 -35 0
-3 -25 0
-3 -36 0
-3 -19 0
-3 -15 0
-3 -28 0
-3 -24 0
-5 -32 0
-5 -8 0
-5 -12 0
-5 -14 0
-5 -13 0
-5 -16 0
-5 -9 0
-5 -10 0
-5 -22 0
-5 -37 0
-5 -20 0
-5 -7 0
-5 -17 0
-5 -18 0
-5 -24 0
-6 -11 0
-6 -8 0
-6 -12 0
-6 -21 0
-6 -14 0
-6 -13 0
-6 -16 0
-6 -7 0
-6 -26 0
-6 -17 0
-6 -15 0
-6 -18 0
-6 -23 0
-6 -24 0
-4 -11 0
-4 -8 0
-4 -12 0
-4 -21 0
-4 -14 0
-4 -13 0
-4 -16 0
-4 -9 0
-4 -10 0
-4 -26 0
-4 -17 0
-4 -19 0
-4 -15 0
-4 -18 0
-4 -23 0
-1 -11 0
-1 -8 0
-1 -12 0
-1 -31 0
-1 -30 0
-1 -27 0
-1 -21 0
-1 -13 0
-1 -16 0
-1 -33 0
-1 -9 0
-1 -10 0
-1 -22 0
-1 -34 0
-1 -20 0
-1 -7 0
-1 -25 0
-1 -17 0
-1 -19 0
-1 -15 0
-1 -18 0
-1 -23 0
-1 -29 0
-1 -28 0
-2 -11 0
-2 -8 0
-2 -12 0
-2 -27 0
-2 -21 0
-2 -14 0
-2 -13 0
-2 -16 0
-2 -9 0
-2 -10 0
-2 -22 0
-2 -20 0
-2 -7 0
-2 -25 0
-2 -26 0
-2 -17 0
-2 -19 0
-2 -15 0
-2 -18 0
-2 -23 0
-2 -29 0
-2 -24 0
